Version identifier: 12.10.0.0 | 2019-11-26 | 843d4de
CPXPARAM_WorkMem                                 16384
CPXPARAM_MIP_Limits_TreeMemory                   24576
Tried aggregator 2 times.
MIP Presolve modified 45 coefficients.
Aggregator did 30 substitutions.
Reduced MIP has 165 rows, 200 columns, and 830 nonzeros.
Reduced MIP has 200 binaries, 0 generals, 0 SOSs, and 0 indicators.
Presolve time = 0,00 sec. (1,10 ticks)
Found incumbent of value 580,000000 after 0,00 sec. (1,65 ticks)
Probing time = 0,00 sec. (0,33 ticks)
Tried aggregator 1 time.
Detecting symmetries...
MIP Presolve eliminated 15 rows and 0 columns.
MIP Presolve added 30 rows and 0 columns.
Reduced MIP has 180 rows, 200 columns, and 845 nonzeros.
Reduced MIP has 200 binaries, 0 generals, 0 SOSs, and 0 indicators.
Presolve time = 0,00 sec. (1,04 ticks)
Probing time = 0,00 sec. (0,33 ticks)
Clique table members: 590.
MIP emphasis: balance optimality and feasibility.
MIP search method: dynamic search.
Parallel mode: deterministic, using up to 16 threads.
Root relaxation solution time = 0,00 sec. (0,56 ticks)

        Nodes                                         Cuts/
   Node  Left     Objective  IInf  Best Integer    Best Bound    ItCnt     Gap

*     0+    0                          580,0000        0,0000           100,00%
*     0+    0                          278,0000        0,0000           100,00%
*     0+    0                          274,0000        0,0000           100,00%
      0     0      127,2500    64      274,0000      127,2500       72   53,56%
      0     0      127,2500    64      274,0000     Cuts: 112       88   53,56%
      0     0      127,2500    64      274,0000     Cuts: 135       99   53,56%
*     0+    0                          272,0000      127,2500            53,22%
      0     0      127,2500    64      272,0000     Cuts: 137      140   53,22%
*     0+    0                          254,0000      127,2500            49,90%
      0     2      150,2500    49      254,0000      127,2500      180   49,90%
Elapsed time = 0,05 sec. (23,42 ticks, tree = 0,02 MB, solutions = 5)

Clique cuts applied:  43
Cover cuts applied:  260
Mixed integer rounding cuts applied:  1
Zero-half cuts applied:  22
Gomory fractional cuts applied:  3

Root node processing (before b&c):
  Real time             =    0,05 sec. (23,31 ticks)
Parallel b&c, 16 threads:
  Real time             =    0,35 sec. (179,83 ticks)
  Sync time (average)   =    0,13 sec.
  Wait time (average)   =    0,00 sec.
                          ------------
Total (root+branch&cut) =    0,40 sec. (203,15 ticks)
